p edge 249 447
e 1 7 1
e 1 2 1
e 2 8 1
e 2 3 1
e 3 9 1
e 3 4 1
e 4 10 1
e 4 5 1
e 5 11 1
e 5 6 1
e 6 12 1
e 7 14 1
e 7 8 1
e 8 15 1
e 8 9 1
e 9 16 1
e 9 10 1
e 10 17 1
e 10 11 1
e 11 18 1
e 11 12 1
e 12 13 1
e 14 27 1
e 14 15 1
e 15 28 1
e 15 16 1
e 16 29 1
e 16 17 1
e 17 30 1
e 17 18 1
e 18 31 1
e 19 32 1
e 19 20 1
e 20 33 1
e 20 21 1
e 21 34 1
e 21 22 1
e 22 35 1
e 22 23 1
e 23 36 1
e 23 24 1
e 24 37 1
e 24 25 1
e 25 38 1
e 25 26 1
e 26 39 1
e 26 27 1
e 27 40 1
e 27 28 1
e 28 41 1
e 28 29 1
e 29 42 1
e 29 30 1
e 30 43 1
e 30 31 1
e 31 44 1
e 32 48 1
e 32 33 1
e 33 49 1
e 33 34 1
e 34 50 1
e 34 35 1
e 35 51 1
e 35 36 1
e 36 52 1
e 36 37 1
e 37 53 1
e 37 38 1
e 38 54 1
e 38 39 1
e 39 55 1
e 39 40 1
e 40 56 1
e 40 41 1
e 41 57 1
e 41 42 1
e 42 58 1
e 42 43 1
e 43 59 1
e 43 44 1
e 44 60 1
e 45 64 1
e 45 46 1
e 46 65 1
e 46 47 1
e 47 66 1
e 48 69 1
e 48 49 1
e 49 70 1
e 49 50 1
e 50 71 1
e 50 51 1
e 51 72 1
e 51 52 1
e 52 73 1
e 52 53 1
e 53 74 1
e 53 54 1
e 54 75 1
e 54 55 1
e 55 76 1
e 55 56 1
e 56 77 1
e 56 57 1
e 57 78 1
e 57 58 1
e 58 79 1
e 58 59 1
e 59 80 1
e 59 60 1
e 60 81 1
e 60 61 1
e 61 82 1
e 61 62 1
e 62 83 1
e 62 63 1
e 63 84 1
e 63 64 1
e 64 85 1
e 64 65 1
e 65 86 1
e 65 66 1
e 66 87 1
e 66 67 1
e 67 88 1
e 67 68 1
e 68 89 1
e 69 90 1
e 69 70 1
e 70 91 1
e 70 71 1
e 71 92 1
e 71 72 1
e 72 93 1
e 72 73 1
e 73 94 1
e 73 74 1
e 74 95 1
e 74 75 1
e 75 96 1
e 75 76 1
e 76 97 1
e 76 77 1
e 77 98 1
e 77 78 1
e 78 99 1
e 78 79 1
e 79 100 1
e 79 80 1
e 80 101 1
e 80 81 1
e 81 102 1
e 81 82 1
e 82 103 1
e 82 83 1
e 83 104 1
e 83 84 1
e 84 105 1
e 84 85 1
e 85 106 1
e 85 86 1
e 86 107 1
e 86 87 1
e 87 108 1
e 87 88 1
e 88 109 1
e 88 89 1
e 89 110 1
e 90 111 1
e 90 91 1
e 91 112 1
e 91 92 1
e 92 113 1
e 92 93 1
e 93 114 1
e 93 94 1
e 94 115 1
e 94 95 1
e 95 116 1
e 95 96 1
e 96 117 1
e 96 97 1
e 97 118 1
e 97 98 1
e 98 119 1
e 98 99 1
e 99 120 1
e 99 100 1
e 100 121 1
e 100 101 1
e 101 122 1
e 101 102 1
e 102 123 1
e 102 103 1
e 103 124 1
e 103 104 1
e 104 125 1
e 104 105 1
e 105 126 1
e 105 106 1
e 106 127 1
e 106 107 1
e 107 128 1
e 107 108 1
e 108 129 1
e 108 109 1
e 109 130 1
e 109 110 1
e 110 131 1
e 111 132 1
e 111 112 1
e 112 133 1
e 112 113 1
e 113 134 1
e 113 114 1
e 114 135 1
e 114 115 1
e 115 136 1
e 115 116 1
e 116 137 1
e 116 117 1
e 117 138 1
e 117 118 1
e 118 139 1
e 118 119 1
e 119 140 1
e 119 120 1
e 120 141 1
e 120 121 1
e 121 142 1
e 121 122 1
e 122 143 1
e 122 123 1
e 123 144 1
e 123 124 1
e 124 145 1
e 124 125 1
e 125 146 1
e 125 126 1
e 126 147 1
e 126 127 1
e 127 148 1
e 127 128 1
e 128 149 1
e 128 129 1
e 129 150 1
e 129 130 1
e 130 151 1
e 130 131 1
e 131 152 1
e 132 133 1
e 133 153 1
e 133 134 1
e 134 154 1
e 134 135 1
e 135 155 1
e 135 136 1
e 136 156 1
e 136 137 1
e 137 157 1
e 137 138 1
e 138 158 1
e 138 139 1
e 139 159 1
e 139 140 1
e 140 160 1
e 140 141 1
e 141 161 1
e 141 142 1
e 142 162 1
e 142 143 1
e 143 163 1
e 143 144 1
e 144 164 1
e 144 145 1
e 145 165 1
e 145 146 1
e 146 166 1
e 146 147 1
e 147 167 1
e 147 148 1
e 148 168 1
e 148 149 1
e 149 169 1
e 149 150 1
e 150 170 1
e 150 151 1
e 151 171 1
e 151 152 1
e 152 172 1
e 153 173 1
e 153 154 1
e 154 174 1
e 154 155 1
e 155 175 1
e 155 156 1
e 156 176 1
e 156 157 1
e 157 177 1
e 157 158 1
e 158 159 1
e 159 178 1
e 159 160 1
e 160 161 1
e 161 162 1
e 162 163 1
e 163 164 1
e 164 179 1
e 164 165 1
e 165 180 1
e 165 166 1
e 166 181 1
e 166 167 1
e 167 182 1
e 167 168 1
e 168 183 1
e 168 169 1
e 169 184 1
e 169 170 1
e 170 185 1
e 170 171 1
e 171 186 1
e 171 172 1
e 172 187 1
e 173 188 1
e 173 174 1
e 174 189 1
e 174 175 1
e 175 190 1
e 175 176 1
e 176 191 1
e 176 177 1
e 179 192 1
e 179 180 1
e 180 193 1
e 180 181 1
e 181 194 1
e 181 182 1
e 182 195 1
e 182 183 1
e 183 196 1
e 183 184 1
e 184 197 1
e 184 185 1
e 185 198 1
e 185 186 1
e 186 199 1
e 186 187 1
e 187 200 1
e 188 203 1
e 188 189 1
e 189 204 1
e 189 190 1
e 190 205 1
e 190 191 1
e 191 206 1
e 192 207 1
e 192 193 1
e 193 208 1
e 193 194 1
e 194 209 1
e 194 195 1
e 195 210 1
e 195 196 1
e 196 211 1
e 196 197 1
e 197 212 1
e 197 198 1
e 198 213 1
e 198 199 1
e 199 214 1
e 199 200 1
e 200 215 1
e 200 201 1
e 201 216 1
e 201 202 1
e 202 217 1
e 203 218 1
e 203 204 1
e 204 219 1
e 204 205 1
e 205 220 1
e 205 206 1
e 206 221 1
e 207 223 1
e 207 208 1
e 208 224 1
e 208 209 1
e 209 225 1
e 209 210 1
e 210 226 1
e 210 211 1
e 211 227 1
e 211 212 1
e 212 228 1
e 212 213 1
e 213 229 1
e 213 214 1
e 214 230 1
e 214 215 1
e 215 231 1
e 215 216 1
e 216 232 1
e 216 217 1
e 217 233 1
e 218 234 1
e 218 219 1
e 219 235 1
e 219 220 1
e 220 236 1
e 220 221 1
e 221 237 1
e 221 222 1
e 222 238 1
e 223 239 1
e 223 224 1
e 224 240 1
e 224 225 1
e 225 241 1
e 225 226 1
e 226 242 1
e 226 227 1
e 227 228 1
e 228 229 1
e 229 230 1
e 230 231 1
e 231 232 1
e 232 233 1
e 234 243 1
e 234 235 1
e 235 244 1
e 235 236 1
e 236 245 1
e 236 237 1
e 237 246 1
e 237 238 1
e 239 247 1
e 239 240 1
e 240 248 1
e 240 241 1
e 241 249 1
e 241 242 1
e 243 244 1
e 244 245 1
e 245 246 1
e 247 248 1
e 248 249 1